MARKOV
237
 2 2 2 2 2 2 2 2 2 2 2 2 2 2 2 2 2 2 2 2 2 2 2 2 2 2 2 2 2 2 2 2 2 2 2 2 2 2 2 2 2 2 2 2 2 2 2 2 2 2 2 2 2 2 2 2 2 2 2 2 2 2 2 2 2 2 2 2 2 2 2 2 2 2 2 2 2 2 2 2 2 2 2 2 2 2 2 2 2 2 2 2 2 2 2 2 2 2 2 2 2 2 2 2 2 2 2 2 2 2 2 2 2 2 2 2 2 2 2 2 2 2 2 2 2 2 2 2 2 2 2 2 2 2 2 2 2 2 2 2 2 2 2 2 2 2 2 2 2 2 2 2 2 2 2 2 2 2 2 2 2 2 2 2 2 2 2 2 2 2 2 2 2 2 2 2 2 2 2 2 2 2 2 2 2 2 2 2 2 2 2 2 2 2 2 2 2 2 2 2 2 2 2 2 2 2 2 2 2 2 2 2 2 2 2 2 2 2 2 2 2 2 2 2 2 2 2 2 2 2 2 2 2 2 2 2 2
887
1	0 
1	1 
1	2 
1	3 
1	4 
1	5 
1	6 
1	7 
1	8 
1	9 
1	10 
1	11 
1	12 
1	13 
1	14 
1	15 
1	16 
1	17 
1	18 
1	19 
1	20 
1	21 
1	22 
1	23 
1	24 
1	25 
1	26 
1	27 
1	28 
1	29 
1	30 
1	31 
1	32 
1	33 
1	34 
1	35 
1	36 
1	37 
1	38 
1	39 
1	40 
1	41 
1	42 
1	43 
1	44 
1	45 
1	46 
1	47 
1	48 
1	49 
1	50 
1	51 
1	52 
1	53 
1	54 
1	55 
1	56 
1	57 
1	58 
1	59 
1	60 
1	61 
1	62 
1	63 
1	64 
1	65 
1	66 
1	67 
1	68 
1	69 
1	70 
1	71 
1	72 
1	73 
1	74 
1	75 
1	76 
1	77 
1	78 
1	79 
1	80 
1	81 
1	82 
1	83 
1	84 
1	85 
1	86 
1	87 
1	88 
1	89 
1	90 
1	91 
1	92 
1	93 
1	94 
1	95 
1	96 
1	97 
1	98 
1	99 
1	100 
1	101 
1	102 
1	103 
1	104 
1	105 
1	106 
1	107 
1	108 
1	109 
1	110 
1	111 
1	112 
1	113 
1	114 
1	115 
1	116 
1	117 
1	118 
1	119 
1	120 
1	121 
1	122 
1	123 
1	124 
1	125 
1	126 
1	127 
1	128 
1	129 
1	130 
1	131 
1	132 
1	133 
1	134 
1	135 
1	136 
1	137 
1	138 
1	139 
1	140 
1	141 
1	142 
1	143 
1	144 
1	145 
1	146 
1	147 
1	148 
1	149 
1	150 
1	151 
1	152 
1	153 
1	154 
1	155 
1	156 
1	157 
1	158 
1	159 
1	160 
1	161 
1	162 
1	163 
1	164 
1	165 
1	166 
1	167 
1	168 
1	169 
1	170 
1	171 
1	172 
1	173 
1	174 
1	175 
1	176 
1	177 
1	178 
1	179 
1	180 
1	181 
1	182 
1	183 
1	184 
1	185 
1	186 
1	187 
1	188 
1	189 
1	190 
1	191 
1	192 
1	193 
1	194 
1	195 
1	196 
1	197 
1	198 
1	199 
1	200 
1	201 
1	202 
1	203 
1	204 
1	205 
1	206 
1	207 
1	208 
1	209 
1	210 
1	211 
1	212 
1	213 
1	214 
1	215 
1	216 
1	217 
1	218 
1	219 
1	220 
1	221 
1	222 
1	223 
1	224 
1	225 
1	226 
1	227 
1	228 
1	229 
1	230 
1	231 
1	232 
1	233 
1	234 
1	235 
1	236 
2	1 21 
2	1 29 
2	1 49 
2	1 172 
2	2 3 
2	2 4 
2	2 5 
2	2 6 
2	2 88 
2	2 145 
2	2 188 
2	3 4 
2	3 6 
2	3 134 
2	3 147 
2	3 162 
2	4 144 
2	4 145 
2	4 147 
2	5 6 
2	5 116 
2	5 117 
2	5 188 
2	5 208 
2	6 62 
2	6 117 
2	6 134 
2	7 9 
2	7 17 
2	7 73 
2	7 78 
2	7 111 
2	8 9 
2	8 16 
2	8 51 
2	9 16 
2	9 17 
2	9 51 
2	9 109 
2	10 11 
2	10 15 
2	10 180 
2	11 13 
2	11 15 
2	11 129 
2	11 181 
2	12 13 
2	12 14 
2	12 19 
2	12 158 
2	12 181 
2	13 14 
2	13 128 
2	13 131 
2	13 181 
2	14 19 
2	14 128 
2	14 230 
2	14 232 
2	15 59 
2	15 60 
2	15 129 
2	16 17 
2	16 178 
2	16 179 
2	17 73 
2	17 74 
2	17 178 
2	18 19 
2	18 20 
2	18 190 
2	18 192 
2	18 234 
2	19 20 
2	19 157 
2	19 158 
2	19 232 
2	19 234 
2	20 90 
2	20 157 
2	20 190 
2	20 226 
2	21 23 
2	21 27 
2	21 172 
2	22 23 
2	22 25 
2	22 26 
2	22 167 
2	22 168 
2	22 171 
2	23 24 
2	23 25 
2	23 27 
2	23 171 
2	23 172 
2	24 25 
2	24 27 
2	24 36 
2	24 38 
2	24 79 
2	25 26 
2	25 35 
2	25 36 
2	26 35 
2	26 37 
2	26 167 
2	26 169 
2	27 79 
2	27 166 
2	28 30 
2	28 31 
2	28 55 
2	28 193 
2	28 199 
2	29 33 
2	29 49 
2	29 171 
2	29 172 
2	29 211 
2	29 212 
2	30 31 
2	30 32 
2	30 55 
2	30 57 
2	30 58 
2	30 210 
2	31 32 
2	31 167 
2	31 170 
2	31 199 
2	31 203 
2	31 222 
2	32 33 
2	32 167 
2	32 168 
2	32 210 
2	33 168 
2	33 171 
2	33 210 
2	33 211 
2	34 35 
2	34 36 
2	34 38 
2	34 39 
2	34 139 
2	35 36 
2	35 37 
2	35 39 
2	36 38 
2	37 39 
2	37 169 
2	37 224 
2	37 225 
2	38 79 
2	38 80 
2	39 139 
2	39 142 
2	39 224 
2	40 43 
2	40 44 
2	40 67 
2	40 69 
2	40 174 
2	40 176 
2	40 182 
2	41 42 
2	41 45 
2	41 74 
2	41 177 
2	42 43 
2	42 44 
2	42 45 
2	42 73 
2	42 74 
2	43 44 
2	43 73 
2	43 76 
2	43 176 
2	44 45 
2	44 182 
2	46 47 
2	46 155 
2	47 48 
2	47 138 
2	47 153 
2	47 155 
2	48 138 
2	48 161 
2	49 50 
2	49 212 
2	50 51 
2	50 110 
2	50 212 
2	51 109 
2	51 110 
2	52 54 
2	52 94 
2	52 95 
2	52 119 
2	52 120 
2	53 54 
2	53 140 
2	53 143 
2	54 120 
2	54 140 
2	55 57 
2	55 77 
2	55 193 
2	56 57 
2	56 58 
2	56 75 
2	56 78 
2	56 111 
2	56 112 
2	57 58 
2	57 75 
2	57 77 
2	58 112 
2	58 210 
2	59 60 
2	59 129 
2	59 235 
2	61 63 
2	61 92 
2	61 93 
2	61 135 
2	61 137 
2	61 150 
2	62 64 
2	62 117 
2	62 134 
2	63 64 
2	63 91 
2	63 93 
2	63 135 
2	64 91 
2	64 117 
2	64 133 
2	64 134 
2	64 135 
2	65 66 
2	65 68 
2	65 69 
2	65 70 
2	65 83 
2	65 184 
2	66 67 
2	66 68 
2	66 69 
2	67 69 
2	67 174 
2	67 182 
2	68 148 
2	68 184 
2	68 185 
2	69 70 
2	69 174 
2	69 183 
2	70 83 
2	70 84 
2	70 183 
2	70 184 
2	71 72 
2	71 114 
2	71 156 
2	71 159 
2	71 229 
2	72 157 
2	72 158 
2	72 159 
2	72 227 
2	72 229 
2	73 74 
2	73 76 
2	73 78 
2	74 177 
2	74 178 
2	75 76 
2	75 77 
2	75 78 
2	76 77 
2	76 78 
2	76 176 
2	77 175 
2	77 176 
2	77 193 
2	77 196 
2	78 111 
2	79 80 
2	79 81 
2	79 166 
2	80 81 
2	81 166 
2	82 84 
2	82 85 
2	82 89 
2	82 108 
2	82 187 
2	82 195 
2	83 84 
2	83 87 
2	83 89 
2	83 184 
2	84 89 
2	84 183 
2	84 186 
2	84 195 
2	85 86 
2	85 88 
2	85 89 
2	85 104 
2	85 108 
2	85 187 
2	85 188 
2	86 87 
2	86 88 
2	86 89 
2	86 144 
2	86 145 
2	87 89 
2	87 144 
2	87 148 
2	87 184 
2	88 145 
2	88 188 
2	90 91 
2	90 93 
2	90 190 
2	90 226 
2	91 93 
2	91 117 
2	91 190 
2	92 93 
2	92 115 
2	92 150 
2	92 226 
2	92 228 
2	93 226 
2	94 95 
2	94 96 
2	94 119 
2	94 121 
2	94 125 
2	95 96 
2	96 123 
2	96 125 
2	96 127 
2	97 98 
2	97 100 
2	97 101 
2	97 102 
2	97 198 
2	97 199 
2	98 100 
2	98 102 
2	98 193 
2	98 195 
2	98 196 
2	99 101 
2	99 103 
2	99 197 
2	99 200 
2	99 205 
2	99 206 
2	99 214 
2	100 193 
2	100 199 
2	101 102 
2	101 103 
2	101 106 
2	101 197 
2	101 198 
2	101 205 
2	102 106 
2	102 187 
2	102 195 
2	102 204 
2	103 105 
2	103 106 
2	103 107 
2	103 205 
2	103 206 
2	104 107 
2	104 108 
2	104 188 
2	104 208 
2	104 209 
2	105 107 
2	105 206 
2	105 207 
2	105 209 
2	105 213 
2	105 214 
2	106 107 
2	106 108 
2	106 204 
2	106 205 
2	107 209 
2	108 187 
2	108 204 
2	109 110 
2	109 111 
2	109 112 
2	110 112 
2	110 211 
2	110 212 
2	111 112 
2	112 210 
2	112 211 
2	113 114 
2	113 115 
2	113 228 
2	113 229 
2	114 156 
2	114 229 
2	115 150 
2	115 152 
2	115 228 
2	116 117 
2	116 189 
2	116 190 
2	116 207 
2	116 208 
2	117 190 
2	118 120 
2	118 122 
2	118 200 
2	118 218 
2	118 219 
2	119 120 
2	119 121 
2	119 122 
2	120 122 
2	120 140 
2	120 219 
2	121 122 
2	121 125 
2	121 216 
2	121 217 
2	122 200 
2	122 217 
2	123 124 
2	123 125 
2	123 126 
2	123 127 
2	124 125 
2	124 126 
2	124 216 
2	124 230 
2	124 233 
2	125 216 
2	126 127 
2	126 130 
2	126 132 
2	126 230 
2	127 130 
2	128 131 
2	128 132 
2	128 230 
2	129 131 
2	129 235 
2	130 132 
2	130 236 
2	131 132 
2	131 235 
2	131 236 
2	132 230 
2	132 236 
2	133 134 
2	133 135 
2	133 136 
2	133 160 
2	133 165 
2	134 160 
2	134 162 
2	135 136 
2	135 137 
2	136 137 
2	136 138 
2	136 161 
2	136 165 
2	137 138 
2	137 150 
2	137 151 
2	137 153 
2	138 153 
2	139 141 
2	139 142 
2	140 143 
2	140 219 
2	140 223 
2	141 142 
2	141 143 
2	142 143 
2	142 223 
2	142 224 
2	143 223 
2	144 145 
2	144 146 
2	144 147 
2	144 148 
2	146 147 
2	146 148 
2	146 149 
2	147 149 
2	147 162 
2	148 184 
2	148 185 
2	149 162 
2	149 164 
2	150 151 
2	150 152 
2	151 152 
2	151 153 
2	151 154 
2	152 154 
2	153 154 
2	153 155 
2	154 155 
2	156 159 
2	156 180 
2	157 158 
2	157 226 
2	157 227 
2	158 159 
2	158 181 
2	159 180 
2	159 181 
2	160 162 
2	160 163 
2	160 164 
2	160 165 
2	161 163 
2	161 165 
2	162 164 
2	163 164 
2	163 165 
2	167 168 
2	167 169 
2	167 170 
2	168 171 
2	169 170 
2	169 225 
2	170 222 
2	170 225 
2	171 172 
2	173 174 
2	173 175 
2	173 176 
2	173 183 
2	173 194 
2	174 176 
2	174 183 
2	175 176 
2	175 194 
2	175 196 
2	177 178 
2	177 179 
2	178 179 
2	180 181 
2	183 186 
2	183 194 
2	186 194 
2	186 195 
2	187 195 
2	187 204 
2	188 208 
2	189 190 
2	189 191 
2	189 192 
2	189 207 
2	190 192 
2	191 192 
2	191 207 
2	191 213 
2	191 215 
2	191 231 
2	191 234 
2	192 234 
2	193 196 
2	193 199 
2	194 195 
2	194 196 
2	195 196 
2	197 198 
2	197 200 
2	197 201 
2	197 202 
2	198 199 
2	198 201 
2	198 203 
2	199 203 
2	200 202 
2	200 214 
2	200 217 
2	200 218 
2	201 202 
2	201 203 
2	201 220 
2	201 222 
2	201 225 
2	202 218 
2	202 220 
2	203 222 
2	206 214 
2	207 208 
2	207 209 
2	207 213 
2	207 214 
2	208 209 
2	210 211 
2	211 212 
2	213 214 
2	213 215 
2	214 215 
2	214 217 
2	215 216 
2	215 217 
2	215 231 
2	215 233 
2	216 217 
2	216 233 
2	218 219 
2	218 220 
2	219 220 
2	219 223 
2	220 221 
2	220 223 
2	220 225 
2	221 223 
2	221 224 
2	221 225 
2	222 225 
2	223 224 
2	224 225 
2	226 227 
2	226 228 
2	226 229 
2	227 229 
2	228 229 
2	230 232 
2	230 233 
2	231 232 
2	231 233 
2	231 234 
2	232 233 
2	232 234 
2	235 236 
0	

2
 0.252912 1
2
 0.822148 1
2
 0.0662412 1
2
 0.315946 1
2
 1 0.513678
2
 0.128938 1
2
 0.239983 1
2
 0.3455 1
2
 1 0.661156
2
 1 0.733313
2
 1 0.0434357
2
 1 0.0992572
2
 0.755167 1
2
 1 0.430266
2
 1 0.511175
2
 1 0.129888
2
 0.121701 1
2
 0.615582 1
2
 0.408794 1
2
 0.73675 1
2
 0.939232 1
2
 1 0.109496
2
 1 0.107738
2
 1 0.151037
2
 1 0.0825159
2
 1 0.0505838
2
 1 0.117156
2
 1 0.0530193
2
 0.960127 1
2
 1 0.254259
2
 1 0.232206
2
 0.731847 1
2
 1 0.214258
2
 1 0.121763
2
 1 0.0544846
2
 1 0.0481135
2
 1 0.0396118
2
 1 0.0682028
2
 1 0.117628
2
 1 0.116501
2
 1 0.973185
2
 0.461384 1
2
 0.994244 1
2
 1 0.759032
2
 0.906001 1
2
 0.418981 1
2
 1 0.427703
2
 1 0.601706
2
 1 0.874257
2
 0.163466 1
2
 0.0821488 1
2
 0.111388 1
2
 0.395069 1
2
 1 0.115363
2
 1 0.951955
2
 0.154793 1
2
 0.25864 1
2
 0.143666 1
2
 0.11802 1
2
 1 0.117275
2
 1 0.0649407
2
 0.493713 1
2
 0.203135 1
2
 0.109998 1
2
 0.132815 1
2
 0.129886 1
2
 0.679601 1
2
 0.527694 1
2
 0.329124 1
2
 0.459083 1
2
 0.115456 1
2
 0.185017 1
2
 0.625643 1
2
 0.117698 1
2
 0.0670118 1
2
 0.115633 1
2
 0.107731 1
2
 0.0447818 1
2
 0.222723 1
2
 0.737045 1
2
 1 0.0352923
2
 1 0.170798
2
 0.0907411 1
2
 0.127644 1
2
 0.056217 1
2
 0.0806541 1
2
 0.148597 1
2
 0.256611 1
2
 0.0356871 1
2
 0.100454 1
2
 1 0.542634
2
 1 0.547077
2
 1 0.380845
2
 1 0.848147
2
 1 0.823052
2
 1 0.158883
2
 1 0.0820139
2
 0.242963 1
2
 0.406294 1
2
 0.104263 1
2
 0.365943 1
2
 0.122241 1
2
 0.148782 1
2
 0.0474531 1
2
 0.0308868 1
2
 0.0794977 1
2
 0.0424496 1
2
 0.0777478 1
2
 0.0299745 1
2
 1 0.95447
2
 1 0.401048
2
 1 0.66735
2
 1 0.316681
2
 0.279585 1
2
 0.331492 1
2
 0.632936 1
2
 0.25283 1
2
 1 0.976528
2
 0.389224 1
2
 0.0460993 1
2
 0.106245 1
2
 0.0197048 1
2
 0.41475 1
2
 1 0.0755916
2
 1 0.214963
2
 1 0.287075
2
 1 0.135201
2
 1 0.078822
2
 1 0.170079
2
 1 0.119781
2
 1 0.0843559
2
 1 0.116957
2
 1 0.159242
2
 0.102812 1
2
 0.0517511 1
2
 1 0.781751
2
 1 0.739258
2
 1 0.713835
2
 1 0.580019
2
 1 0.311382
2
 1 0.38455
2
 1 0.36122
2
 1 0.125131
2
 1 0.0876013
2
 0.468013 1
2
 0.0901996 1
2
 1 0.411502
2
 1 0.297469
2
 1 0.462609
2
 1 0.341951
2
 0.94738 1
2
 1 0.369358
2
 1 0.380488
2
 1 0.667641
2
 1 0.169471
2
 1 0.269396
2
 0.318635 1
2
 0.0768379 1
2
 0.0539875 1
2
 0.071521 1
2
 1 0.461053
2
 1 0.983218
2
 1 0.57584
2
 1 0.509772
2
 1 0.320876
2
 1 0.313148
2
 1 0.132267
2
 1 0.327675
2
 1 0.198678
2
 1 0.23556
2
 1 0.288666
2
 1 0.0927282
2
 1 0.117014
2
 0.275488 1
2
 0.387224 1
2
 0.324935 1
2
 0.865529 1
2
 0.348833 1
2
 1 0.927406
2
 0.478543 1
2
 0.789688 1
2
 0.209067 1
2
 0.145049 1
2
 0.045996 1
2
 0.2396 1
2
 0.138834 1
2
 0.0145044 1
2
 0.0732952 1
2
 0.0778333 1
2
 0.409586 1
2
 1 0.243105
2
 0.402728 1
2
 1 0.275278
2
 0.0420349 1
2
 0.220183 1
2
 0.164053 1
2
 0.469184 1
2
 0.116367 1
2
 0.186803 1
2
 0.152118 1
2
 0.097295 1
2
 0.131963 1
2
 0.162947 1
2
 0.0527935 1
2
 0.0856934 1
2
 0.0479181 1
2
 0.0483359 1
2
 0.0308594 1
2
 0.117383 1
2
 0.285066 1
2
 1 0.460757
2
 1 0.260703
2
 1 0.238211
2
 0.0799339 1
2
 0.108125 1
2
 0.0455158 1
2
 0.0283642 1
2
 0.177799 1
2
 0.234729 1
2
 0.151876 1
2
 0.0898528 1
2
 1 0.0988326
2
 1 0.649801
2
 1 0.655316
2
 1 0.123406
2
 1 0.276137
2
 0.180025 1
2
 0.085465 1
2
 0.156423 1
2
 0.204 1
2
 1 0.142294
2
 1 0.72449
2
 1 0.51745
2
 1 0.409768
2
 0.940253 1
2
 1 0.3497
2
 1 0.0330638
4
 1 0.349068 0.349068 0.969394
4
 1 0.34292 0.34292 0.978911
4
 1 0.344003 0.344003 0.980507
4
 1 0.34597 0.34597 0.973922
4
 0.956489 0.26438 0.26438 1
4
 0.954503 0.26424 0.26424 1
4
 0.965337 0.270501 0.270501 1
4
 0.960795 0.266729 0.266729 1
4
 0.960363 0.269307 0.269307 1
4
 0.955522 0.265697 0.265697 1
4
 0.964795 0.271953 0.271953 1
4
 0.950119 0.260363 0.260363 1
4
 0.956382 0.262816 0.262816 1
4
 0.951561 0.25843 0.25843 1
4
 0.946817 0.257648 0.257648 1
4
 0.947189 0.256342 0.256342 1
4
 0.945382 0.260009 0.260009 1
4
 0.949158 0.26166 0.26166 1
4
 0.944851 0.257512 0.257512 1
4
 0.965229 0.268901 0.268901 1
4
 0.973448 0.274383 0.274383 1
4
 0.969358 0.270336 0.270336 1
4
 0.969248 0.274168 0.274168 1
4
 0.973721 0.276401 0.276401 1
4
 0.960095 0.26336 0.26336 1
4
 0.964796 0.266567 0.266567 1
4
 0.955845 0.260726 0.260726 1
4
 0.973494 0.310039 0.310039 1
4
 0.968479 0.305598 0.305598 1
4
 0.968153 0.302722 0.302722 1
4
 0.972785 0.306634 0.306634 1
4
 0.977548 0.311404 0.311404 1
4
 0.974752 0.313895 0.313895 1
4
 0.969675 0.311324 0.311324 1
4
 0.981011 0.320125 0.320125 1
4
 0.969185 0.309508 0.309508 1
4
 0.96924 0.307594 0.307594 1
4
 0.980516 0.318257 0.318257 1
4
 0.979746 0.316193 0.316193 1
4
 1 0.28077 0.28077 0.985405
4
 1 0.280414 0.280414 0.982422
4
 1 0.276482 0.276482 0.991343
4
 1 0.284219 0.284219 0.986237
4
 1 0.282956 0.282956 0.98143
4
 1 0.286293 0.286293 0.978954
4
 1 0.281393 0.281393 0.989176
4
 1 0.284003 0.284003 0.992459
4
 1 0.284945 0.284945 0.995194
4
 0.999876 0.282745 0.282745 1
4
 1 0.280777 0.280777 0.999955
4
 1 0.281179 0.281179 0.995417
4
 1 0.286072 0.286072 0.990789
4
 1 0.288144 0.288144 0.985961
4
 1 0.288113 0.288113 0.982368
4
 1 0.282291 0.282291 0.991011
4
 1 0.284841 0.284841 0.998441
4
 1 0.289101 0.289101 0.988678
4
 1 0.290569 0.290569 0.989122
4
 1 0.288588 0.288588 0.993687
4
 1 0.285838 0.285838 0.973799
4
 1 0.283288 0.283288 0.975222
4
 1 0.28593 0.28593 0.975989
4
 0.964191 0.305075 0.305075 1
4
 0.960301 0.302504 0.302504 1
4
 0.958792 0.303106 0.303106 1
4
 0.963922 0.300334 0.300334 1
4
 0.961111 0.299584 0.299584 1
4
 0.960355 0.300633 0.300633 1
4
 0.993328 0.280107 0.280107 1
4
 0.986658 0.275264 0.275264 1
4
 0.983891 0.27529 0.27529 1
4
 0.988709 0.279107 0.279107 1
4
 0.99277 0.28161 0.28161 1
4
 0.989932 0.276852 0.276852 1
4
 0.990488 0.276294 0.276294 1
4
 0.996793 0.279774 0.279774 1
4
 1 0.286396 0.286396 0.99861
4
 0.996065 0.283236 0.283236 1
4
 0.978877 0.26922 0.26922 1
4
 0.983837 0.271517 0.271517 1
4
 0.980527 0.272092 0.272092 1
4
 0.977998 0.26678 0.26678 1
4
 1 0.348404 0.348404 0.964994
4
 1 0.352555 0.352555 0.960561
4
 1 0.348015 0.348015 0.968686
4
 1 0.342378 0.342378 0.968196
4
 1 0.341547 0.341547 0.96586
4
 1 0.338034 0.338034 0.969228
4
 1 0.33472 0.33472 0.975891
4
 1 0.336652 0.336652 0.975343
4
 1 0.339244 0.339244 0.973647
4
 1 0.348026 0.348026 0.960507
4
 1 0.344858 0.344858 0.963477
4
 1 0.349816 0.349816 0.96137
4
 1 0.342533 0.342533 0.971245
4
 1 0.345311 0.345311 0.969502
4
 1 0.34718 0.34718 0.95819
4
 1 0.352172 0.352172 0.956095
4
 1 0.349815 0.349815 0.953039
4
 1 0.352839 0.352839 0.9493
4
 1 0.353576 0.353576 0.952076
4
 1 0.340483 0.340483 0.964505
4
 1 0.343196 0.343196 0.95905
4
 1 0.346632 0.346632 0.955986
4
 1 0.339667 0.339667 0.962395
4
 1 0.335783 0.335783 0.966347
4
 1 0.333678 0.333678 0.974521
4
 1 0.334051 0.334051 0.970807
4
 1 0.355395 0.355395 0.952933
4
 1 0.357031 0.357031 0.952986
4
 0.998633 0.318205 0.318205 1
4
 1 0.319237 0.319237 0.996992
4
 0.992596 0.312363 0.312363 1
4
 0.992206 0.310829 0.310829 1
4
 0.999251 0.315073 0.315073 1
4
 1 0.335734 0.335734 0.985141
4
 1 0.339942 0.339942 0.98481
4
 1 0.339135 0.339135 0.979955
4
 1 0.341885 0.341885 0.978197
4
 1 0.334548 0.334548 0.989466
4
 1 0.337124 0.337124 0.987745
4
 1 0.321101 0.321101 0.996881
4
 1 0.323503 0.323503 0.996545
4
 0.992707 0.314221 0.314221 1
4
 0.992929 0.315857 0.315857 1
4
 0.995441 0.319324 0.319324 1
4
 0.999586 0.322876 0.322876 1
4
 1 0.324109 0.324109 0.99219
4
 1 0.326025 0.326025 0.986856
4
 1 0.324032 0.324032 0.987687
4
 1 0.317743 0.317743 0.996264
4
 1 0.318932 0.318932 0.993248
4
 1 0.321536 0.321536 0.988963
4
 1 0.329565 0.329565 0.989465
4
 1 0.328464 0.328464 0.986524
4
 1 0.33036 0.33036 0.98597
4
 1 0.326036 0.326036 0.995707
4
 1 0.333427 0.333427 0.983593
4
 1 0.335994 0.335994 0.981883
4
 1 0.329062 0.329062 0.993306
4
 1 0.33145 0.33145 0.991412
4
 1 0.345667 0.345667 0.951327
4
 1 0.349127 0.349127 0.948287
4
 1 0.352145 0.352145 0.944567
4
 1 0.344601 0.344601 0.950205
4
 1 0.346411 0.346411 0.946265
4
 1 0.345801 0.345801 0.953895
4
 1 0.33846 0.33846 0.960882
4
 1 0.341318 0.341318 0.955824
4
 1 0.352281 0.352281 0.947117
4
 1 0.337416 0.337416 0.95975
4
 1 0.332863 0.332863 0.969282
4
 1 0.333035 0.333035 0.964341
4
 1 0.330288 0.330288 0.970316
4
 1 0.356068 0.356068 0.946161
4
 1 0.357792 0.357792 0.94229
4
 1 0.342053 0.342053 0.950739
4
 1 0.338143 0.338143 0.954643
4
 1 0.335848 0.335848 0.959264
4
 0.955141 0.285943 0.285943 1
4
 0.948035 0.280239 0.280239 1
4
 0.946546 0.277077 0.277077 1
4
 0.949794 0.27847 0.27847 1
4
 0.953481 0.282322 0.282322 1
4
 0.957451 0.286416 0.286416 1
4
 0.945749 0.277455 0.277455 1
4
 0.9515 0.288837 0.288837 1
4
 0.947076 0.285417 0.285417 1
4
 0.953157 0.292054 0.292054 1
4
 0.948885 0.290448 0.290448 1
4
 0.956966 0.290015 0.290015 1
4
 0.949846 0.28423 0.28423 1
4
 0.950219 0.286109 0.286109 1
4
 0.959117 0.293495 0.293495 1
4
 0.95632 0.292762 0.292762 1
4
 0.952142 0.284699 0.284699 1
4
 0.961436 0.29398 0.29398 1
4
 0.964194 0.294579 0.294579 1
4
 0.961599 0.290974 0.290974 1
4
 0.945429 0.280865 0.280865 1
4
 0.942779 0.276248 0.276248 1
4
 0.92216 0.226965 0.226965 1
4
 0.925844 0.228026 0.228026 1
4
 0.924129 0.230241 0.230241 1
4
 0.928499 0.232719 0.232719 1
4
 0.929542 0.232168 0.232168 1
4
 0.92704 0.22971 0.22971 1
4
 0.929281 0.234348 0.234348 1
4
 0.924907 0.233015 0.233015 1
4
 1 0.337948 0.337948 0.993085
4
 1 0.338188 0.338188 0.989355
4
 0.993484 0.329734 0.329734 1
4
 0.998238 0.331775 0.331775 1
4
 1 0.335146 0.335146 0.996044
4
 0.986037 0.322468 0.322468 1
4
 0.991534 0.326583 0.326583 1
4
 1 0.320708 0.320708 0.957431
4
 1 0.315609 0.315609 0.961741
4
 1 0.316899 0.316899 0.958345
4
 1 0.315722 0.315722 0.964121
4
 1 0.318152 0.318152 0.962444
4
 1 0.325267 0.325267 0.954265
4
 1 0.326929 0.326929 0.954909
4
 1 0.329705 0.329705 0.952928
4
 1 0.319858 0.319858 0.961958
4
 1 0.324076 0.324076 0.957593
4
 0.986926 0.310058 0.310058 1
4
 0.981345 0.304849 0.304849 1
4
 0.986318 0.306938 0.306938 1
4
 0.985541 0.312148 0.312148 1
4
 0.988034 0.315574 0.315574 1
4
 0.980683 0.309279 0.309279 1
4
 0.978373 0.308913 0.308913 1
4
 0.983164 0.313718 0.313718 1
4
 0.988145 0.317452 0.317452 1
4
 0.989645 0.315094 0.315094 1
4
 0.982282 0.308808 0.308808 1
4
 0.981565 0.306436 0.306436 1
4
 0.992259 0.320448 0.320448 1
4
 0.996279 0.322095 0.322095 1
4
 1 0.286536 0.286536 0.970578
4
 1 0.289209 0.289209 0.971342
4
 1 0.292204 0.292204 0.96775
4
 0.956814 0.253871 0.253871 1
4
 0.95902 0.253209 0.253209 1
4
 0.960852 0.255533 0.255533 1
4
 0.952044 0.250584 0.250584 1
4
 0.949749 0.247681 0.247681 1
4
 0.954561 0.249794 0.249794 1
4
 0.95988 0.260688 0.260688 1
4
 0.964201 0.264765 0.264765 1
4
 0.955255 0.258964 0.258964 1
4
 0.959234 0.257945 0.257945 1
4
 0.963769 0.260287 0.260287 1
4
 0.962255 0.257779 0.257779 1
4
 0.953435 0.252787 0.252787 1
4
 0.964798 0.262159 0.262159 1
4
 0.96458 0.263863 0.263863 1
4
 0.95338 0.25521 0.25521 1
4
 0.955631 0.258082 0.258082 1
4
 0.954452 0.254605 0.254605 1
4
 0.942464 0.268227 0.268227 1
4
 0.941829 0.265847 0.265847 1
4
 0.947132 0.272526 0.272526 1
4
 0.949848 0.273537 0.273537 1
4
 0.949156 0.270984 0.270984 1
4
 0.944531 0.267278 0.267278 1
4
 0.940665 0.269805 0.269805 1
4
 0.938609 0.264516 0.264516 1
4
 0.943893 0.271162 0.271162 1
4
 0.945325 0.27413 0.27413 1
4
 0.948994 0.277922 0.277922 1
4
 0.941299 0.27313 0.27313 1
4
 0.936556 0.259331 0.259331 1
4
 0.940667 0.263581 0.263581 1
4
 0.935663 0.259876 0.259876 1
4
 0.951289 0.276531 0.276531 1
4
 0.952251 0.27932 0.27932 1
4
 0.954017 0.278484 0.278484 1
4
 0.953322 0.274966 0.274966 1
4
 0.957883 0.278984 0.278984 1
4
 0.956753 0.279517 0.279517 1
4
 0.948676 0.271206 0.271206 1
4
 0.988712 0.269504 0.269504 1
4
 0.983783 0.263807 0.263807 1
4
 0.989768 0.267846 0.267846 1
4
 0.993107 0.27132 0.27132 1
4
 0.983673 0.265325 0.265325 1
4
 0.987102 0.271269 0.271269 1
4
 0.993385 0.274686 0.274686 1
4
 0.994223 0.273399 0.273399 1
4
 0.985718 0.269479 0.269479 1
4
 0.984778 0.267357 0.267357 1
4
 0.960788 0.296764 0.296764 1
4
 0.966361 0.298113 0.298113 1
4
 0.968208 0.301351 0.301351 1
4
 0.953692 0.294395 0.294395 1
4
 0.957233 0.297059 0.297059 1
4
 0.973278 0.302324 0.302324 1
4
 0.976727 0.30362 0.30362 1
4
 0.975137 0.305608 0.305608 1
4
 0.972568 0.300001 0.300001 1
4
 0.970985 0.301965 0.301965 1
4
 0.966525 0.295065 0.295065 1
4
 0.97306 0.297764 0.297764 1
4
 0.96995 0.296331 0.296331 1
4
 0.98096 0.303352 0.303352 1
4
 0.976563 0.29918 0.29918 1
4
 0.977604 0.309994 0.309994 1
4
 1 0.358539 0.358539 0.945046
4
 1 0.360314 0.360314 0.944622
4
 1 0.358455 0.358455 0.948981
4
 1 0.362058 0.362058 0.940758
4
 1 0.361973 0.361973 0.944675
4
 0.964684 0.281382 0.281382 1
4
 0.96642 0.279476 0.279476 1
4
 0.963007 0.278282 0.278282 1
4
 0.971371 0.283878 0.283878 1
4
 0.971043 0.284981 0.284981 1
4
 0.971206 0.28681 0.28681 1
4
 0.957184 0.27638 0.27638 1
4
 0.949156 0.268734 0.268734 1
4
 0.95552 0.273335 0.273335 1
4
 0.947984 0.268674 0.268674 1
4
 0.960091 0.277329 0.277329 1
4
 0.96063 0.280954 0.280954 1
4
 0.963818 0.282575 0.282575 1
4
 0.968266 0.285828 0.285828 1
4
 0.959015 0.272028 0.272028 1
4
 0.962522 0.273449 0.273449 1
4
 0.961819 0.275451 0.275451 1
4
 0.970554 0.279565 0.279565 1
4
 0.970172 0.280989 0.280989 1
4
 0.969845 0.282082 0.282082 1
4
 0.966964 0.276136 0.276136 1
4
 0.949264 0.266307 0.266307 1
4
 0.956326 0.268898 0.268898 1
4
 0.955628 0.270866 0.270866 1
4
 0.94772 0.263618 0.263618 1
4
 0.951506 0.265293 0.265293 1
4
 0.952039 0.269658 0.269658 1
4
 0.944161 0.262442 0.262442 1
4
 0.940404 0.260786 0.260786 1
4
 0.944531 0.265059 0.265059 1
4
 0.954985 0.266678 0.266678 1
4
 0.964253 0.272958 0.272958 1
4
 0.971921 0.26547 0.26547 1
4
 0.970395 0.262912 0.262912 1
4
 0.976132 0.269246 0.269246 1
4
 0.973615 0.263989 0.263989 1
4
 0.967837 0.261991 0.261991 1
4
 0.969141 0.266259 0.266259 1
4
 0.973559 0.268302 0.268302 1
4
 0.964474 0.257107 0.257107 1
4
 0.962257 0.252673 0.252673 1
4
 0.958159 0.251332 0.251332 1
4
 0.967675 0.25816 0.25816 1
4
 0.967023 0.256296 0.256296 1
4
 0.969524 0.260529 0.260529 1
4
 1 0.313532 0.313532 0.962173
4
 1 0.31134 0.31134 0.962659
4
 1 0.312367 0.312367 0.967972
4
 1 0.309408 0.309408 0.971238
4
 1 0.309404 0.309404 0.968352
4
 1 0.312612 0.312612 0.959259
4
 1 0.307903 0.307903 0.963686
4
 1 0.308497 0.308497 0.965419
4
 1 0.307542 0.307542 0.961416
4
 0.988481 0.302303 0.302303 1
4
 0.991761 0.306082 0.306082 1
4
 0.993267 0.303303 0.303303 1
4
 0.987871 0.30026 0.30026 1
4
 0.996619 0.307237 0.307237 1
4
 0.996226 0.309318 0.309318 1
4
 0.98776 0.303503 0.303503 1
4
 0.983885 0.29773 0.29773 1
4
 0.985211 0.30258 0.30258 1
4
 0.97964 0.295519 0.295519 1
4
 0.980796 0.298418 0.298418 1
4
 0.9983 0.303351 0.303351 1
4
 0.997964 0.300997 0.300997 1
4
 1 0.306115 0.306115 0.994976
4
 1 0.307074 0.307074 0.990683
4
 0.998468 0.302259 0.302259 1
4
 1 0.302853 0.302853 0.998726
4
 1 0.302755 0.302755 0.996485
4
 0.98848 0.306362 0.306362 1
4
 0.995499 0.310545 0.310545 1
4
 0.988649 0.298714 0.298714 1
4
 0.993714 0.2994 0.2994 1
4
 0.989482 0.297314 0.297314 1
4
 1 0.305792 0.305792 0.999231
4
 0.997403 0.305655 0.305655 1
4
 0.994216 0.300655 0.300655 1
4
 0.984107 0.294332 0.294332 1
4
 0.978871 0.29165 0.29165 1
4
 0.979036 0.293522 0.293522 1
4
 0.98212 0.293823 0.293823 1
4
 0.994162 0.29604 0.29604 1
4
 0.989149 0.295007 0.295007 1
4
 0.989316 0.293455 0.293455 1
4
 0.993882 0.298322 0.298322 1
4
 0.996676 0.299289 0.299289 1
4
 0.980578 0.28618 0.28618 1
4
 0.975526 0.283969 0.283969 1
4
 0.9723 0.279063 0.279063 1
4
 0.976787 0.281336 0.281336 1
4
 0.980469 0.284488 0.284488 1
4
 0.990095 0.292431 0.292431 1
4
 0.997461 0.298245 0.298245 1
4
 0.992656 0.291374 0.291374 1
4
 0.989984 0.290702 0.290702 1
4
 0.996734 0.294477 0.294477 1
4
 0.999704 0.298819 0.298819 1
4
 0.985103 0.291411 0.291411 1
4
 0.980027 0.289159 0.289159 1
4
 0.982948 0.292446 0.292446 1
4
 0.989649 0.296244 0.296244 1
4
 0.985159 0.288164 0.288164 1
4
 0.974813 0.286525 0.286525 1
4
 0.978048 0.288659 0.288659 1
4
 0.990755 0.324464 0.324464 1
4
 0.983826 0.317584 0.317584 1
4
 0.98881 0.321363 0.321363 1
4
 0.994322 0.325464 0.325464 1
4
 1 0.330055 0.330055 0.999742
4
 1 0.332596 0.332596 0.998004
4
 0.987368 0.318563 0.318563 1
4
 0.996391 0.324012 0.324012 1
4
 0.998295 0.326986 0.326986 1
4
 0.974547 0.256929 0.256929 1
4
 0.965505 0.252139 0.252139 1
4
 0.970287 0.255754 0.255754 1
4
 0.974437 0.258408 0.258408 1
4
 0.98594 0.264192 0.264192 1
4
 0.979869 0.261705 0.261705 1
4
 0.957783 0.249266 0.249266 1
4
 0.956977 0.247121 0.247121 1
4
 0.966644 0.254188 0.254188 1
4
 0.973012 0.272001 0.272001 1
4
 0.980746 0.278107 0.278107 1
4
 0.977447 0.274089 0.274089 1
4
 0.983724 0.281868 0.281868 1
4
 0.977392 0.278103 0.278103 1
4
 0.97334 0.270046 0.270046 1
4
 1 0.316923 0.316923 0.970041
4
 1 0.312879 0.312879 0.976215
4
 1 0.313246 0.313246 0.97852
4
 1 0.316879 0.316879 0.974737
4
 1 0.319054 0.319054 0.970259
4
 1 0.314884 0.314884 0.968679
4
 1 0.309518 0.309518 0.973641
4
 1 0.310866 0.310866 0.974845
4
 1 0.313259 0.313259 0.97315
4
 1 0.321493 0.321493 0.962607
4
 1 0.319442 0.319442 0.967213
4
 1 0.307921 0.307921 0.978134
4
 1 0.306582 0.306582 0.974023
4
 1 0.304092 0.304092 0.980939
4
 1 0.305177 0.305177 0.982483
4
 1 0.309625 0.309625 0.981657
4
 1 0.306506 0.306506 0.983698
4
 1 0.303109 0.303109 0.973093
4
 1 0.305989 0.305989 0.969385
4
 1 0.302373 0.302373 0.970746
4
 1 0.305042 0.305042 0.965364
4
 1 0.303693 0.303693 0.974843
4
 1 0.300105 0.300105 0.976212
4
 1 0.301227 0.301227 0.981765
4
 1 0.297479 0.297479 0.981654
4
 1 0.298897 0.298897 0.982812
4
 1 0.304089 0.304089 0.978024
4
 1 0.302019 0.302019 0.968459
4
 1 0.300079 0.300079 0.969982
4
 1 0.297517 0.297517 0.974021
4
 1 0.296757 0.296757 0.979286
4
 1 0.302727 0.302727 0.964605
4
 1 0.291163 0.291163 0.980275
4
 1 0.293424 0.293424 0.97901
4
 1 0.292674 0.292674 0.984302
4
 1 0.290216 0.290216 0.975114
4
 1 0.292299 0.292299 0.969926
4
 1 0.298216 0.298216 0.970145
4
 1 0.300121 0.300121 0.965309
4
 1 0.293392 0.293392 0.975443
4
 1 0.293222 0.293222 0.971507
4
 1 0.295266 0.295266 0.97058
4
 1 0.294914 0.294914 0.979451
4
 1 0.297559 0.297559 0.969328
4
 0.948787 0.253522 0.253522 1
4
 0.947617 0.250107 0.250107 1
4
 0.942417 0.246659 0.246659 1
4
 0.942257 0.248792 0.248792 1
4
 0.939458 0.245586 0.245586 1
4
 0.944482 0.251591 0.251591 1
4
 0.946658 0.254304 0.254304 1
4
 0.943476 0.246074 0.246074 1
4
 0.946394 0.246623 0.246623 1
4
 0.941201 0.243223 0.243223 1
4
 0.935983 0.239759 0.239759 1
4
 0.931579 0.238395 0.238395 1
4
 0.935352 0.241626 0.241626 1
4
 0.938879 0.240294 0.240294 1
4
 0.948896 0.245845 0.245845 1
4
 0.944908 0.243028 0.243028 1
4
 0.939934 0.239724 0.239724 1
4
 0.934724 0.236309 0.236309 1
4
 1 0.34076 0.34076 0.947753
4
 1 0.339918 0.339918 0.950685
4
 1 0.328498 0.328498 0.956251
4
 1 0.323655 0.323655 0.962824
4
 1 0.32628 0.32628 0.961096
4
 1 0.336864 0.336864 0.951646
4
 1 0.334478 0.334478 0.951485
4
 1 0.333651 0.333651 0.954428
4
 1 0.331398 0.331398 0.959263
4
 1 0.333752 0.333752 0.95921
4
 1 0.32905 0.32905 0.959101
4
 0.94639 0.261443 0.261443 1
4
 0.938031 0.255813 0.255813 1
4
 0.942096 0.257297 0.257297 1
4
 0.938874 0.258153 0.258153 1
4
 0.937505 0.253356 0.253356 1
4
 0.934299 0.254198 0.254198 1
4
 0.932518 0.249795 0.249795 1
4
 0.936559 0.251245 0.251245 1
4
 0.941938 0.253535 0.253535 1
4
 0.939242 0.260727 0.260727 1
4
 0.934246 0.257063 0.257063 1
4
 0.936927 0.249971 0.249971 1
4
 0.930949 0.245925 0.245925 1
4
 0.949696 0.245102 0.245102 1
4
 0.952901 0.24581 0.24581 1
4
 0.948897 0.242993 0.242993 1
4
 0.940726 0.238999 0.238999 1
4
 0.943478 0.239597 0.239597 1
4
 0.946662 0.240289 0.240289 1
4
 0.938511 0.236339 0.236339 1
4
 0.933256 0.233253 0.233253 1
4
 0.935985 0.233837 0.233837 1
4
 0.995285 0.271716 0.271716 1
4
 0.997803 0.271965 0.271965 1
4
 0.990656 0.274382 0.274382 1
4
 0.978548 0.266241 0.266241 1
4
 0.983009 0.269181 0.269181 1
4
 0.997802 0.276537 0.276537 1
4
 1 0.279085 0.279085 0.998496
4
 1 0.27517 0.27517 0.998831
4
 1 0.277543 0.277543 0.997654
4
 0.940143 0.249559 0.249559 1
4
 0.932624 0.243041 0.243041 1
4
 0.934144 0.245519 0.245519 1
4
 0.935194 0.243715 0.243715 1
4
 0.926102 0.2367 0.2367 1
4
 0.928654 0.237358 0.237358 1
4
 0.936297 0.248167 0.248167 1
4
 0.928809 0.241685 0.241685 1
4
 0.929853 0.239909 0.239909 1
4
 1 0.332313 0.332313 0.98067
4
 1 0.330776 0.330776 0.97748
4
 1 0.328386 0.328386 0.982047
4
 1 0.336804 0.336804 0.978415
4
 1 0.328754 0.328754 0.978304
4
 1 0.328584 0.328584 0.974794
4
 1 0.323865 0.323865 0.984144
4
 1 0.32621 0.32621 0.979348
4
 1 0.34215 0.34215 0.974961
4
 0.95955 0.284927 0.284927 1
4
 0.966635 0.290457 0.290457 1
4
 0.963545 0.289059 0.289059 1
4
 0.96133 0.284074 0.284074 1
4
 0.966201 0.287935 0.287935 1
4
 0.959927 0.287289 0.287289 1
4
 0.95772 0.282336 0.282336 1
4
 0.967014 0.292864 0.292864 1
4
 0.969679 0.291726 0.291726 1
4
 0.973607 0.29568 0.29568 1
4
 0.952942 0.295426 0.295426 1
4
 0.951445 0.296014 0.296014 1
4
 0.954977 0.298692 0.298692 1
4
 1 0.277095 0.277095 0.995136
4
 0.962681 0.283115 0.283115 1
4
 0.964358 0.285316 0.285316 1
4
 0.967559 0.286962 0.286962 1
4
 0.970334 0.288027 0.288027 1
4
 0.974648 0.289484 0.289484 1
4
 0.977718 0.289781 0.289781 1
4
 0.973174 0.277885 0.277885 1
4
 0.981077 0.276108 0.276108 1
4
 0.990431 0.284579 0.284579 1
4
 0.985881 0.279936 0.279936 1
4
 0.987376 0.283945 0.283945 1
4
 0.982566 0.275891 0.275891 1
4
 0.991934 0.284355 0.284355 1
4
 0.993438 0.288427 0.288427 1
4
 0.997518 0.2915 0.2915 1
4
 1 0.293889 0.293889 0.998499
4
 1 0.291139 0.291139 0.999789
4
 0.996008 0.286905 0.286905 1
4
 0.991433 0.282225 0.282225 1
4
 0.981511 0.30123 0.30123 1
4
 0.992931 0.309601 0.309601 1
4
 0.972024 0.290265 0.290265 1
4
 0.97317 0.293113 0.293113 1
4
 0.975961 0.2942 0.2942 1
4
 1 0.308717 0.308717 0.995871
4
 1 0.309019 0.309019 0.988238
4
 1 0.31159 0.31159 0.99074
4
 1 0.310843 0.310843 0.988572
4
 1 0.3116 0.3116 0.999625
4
 1 0.312261 0.312261 0.994084
4
 1 0.312765 0.312765 0.996599
4
 1 0.315007 0.315007 0.996991
4
 1 0.311817 0.311817 0.984307
4
 1 0.305628 0.305628 0.989737
4
 1 0.306866 0.306866 0.986021
4
 1 0.313583 0.313583 0.98017
4
 1 0.314411 0.314411 0.986798
4
 1 0.315675 0.315675 0.991464
4
 1 0.317798 0.317798 0.983093
4
 1 0.318253 0.318253 0.987187
4
 1 0.320558 0.320558 0.982376
4
 1 0.315434 0.315434 0.980501
4
 1 0.317036 0.317036 0.980942
4
 1 0.318767 0.318767 0.989685
4
 1 0.301426 0.301426 0.997772
4
 0.983999 0.283941 0.283941 1
4
 0.987708 0.287122 0.287122 1
4
 0.994442 0.290851 0.290851 1
4
 0.997405 0.295139 0.295139 1
4
 0.98135 0.283286 0.283286 1
4
 1 0.3279 0.3279 0.997666
4
 1 0.332822 0.332822 0.994032
4
 1 0.297835 0.297835 0.9985
4
 1 0.296059 0.296059 0.997491
4
 1 0.299532 0.299532 0.994527
4
 1 0.30255 0.30255 0.991795
4
 1 0.299676 0.299676 0.989236
4
 1 0.300745 0.300745 0.990793
4
 1 0.294959 0.294959 0.994806
4
 1 0.297358 0.297358 0.990291
4
 1 0.302696 0.302696 0.986518
4
 1 0.299287 0.299287 0.986019
4
 1 0.319397 0.319397 0.971895
4
 1 0.318831 0.318831 0.976819
4
 1 0.32102 0.32102 0.972332
4
 1 0.324198 0.324198 0.965694
4
 1 0.323252 0.323252 0.974081
4
 1 0.323624 0.323624 0.970587
4
 1 0.323234 0.323234 0.976546
4
 1 0.326452 0.326452 0.967431
4
 1 0.328771 0.328771 0.967377
4
 1 0.326059 0.326059 0.973371
4
 1 0.323697 0.323697 0.980613
4
 1 0.329149 0.329149 0.963907
4
 1 0.328753 0.328753 0.969825
4
 0.977176 0.264484 0.264484 1
4
 0.972086 0.259708 0.259708 1
4
 0.976244 0.262402 0.262402 1
4
 0.980694 0.2653 0.2653 1
4
 0.975586 0.260508 0.260508 1
4
 1 0.292155 0.292155 0.989289
4
 1 0.295562 0.295562 0.985907
4
 1 0.29118 0.29118 0.994972
4
 1 0.294576 0.294576 0.99157
4
 0.999706 0.289019 0.289019 1
4
 1 0.293547 0.293547 0.990457
4
 1 0.288095 0.288095 0.999171
4
 1 0.297386 0.297386 0.965417
1
 1

